# Instance R203 - 90 dynamic requests - 10 static requests
Dyn   Stat
90    10
ID    RD
2     -1
3     -1
5     -1
7     -1
12    -1
14    -1
16    -1
50    -1
66    -1
93    -1
1     67
4     166
6     141
8     145
9     319
10    52
11    187
13    154
15    113
17    394
18    23
19    5
20    113
21    10
22    212
23    31
24    92
25    290
26    47
27    39
28    78
29    44
30    250
31    3
32    7
33    13
34    65
35    267
36    10
37    122
38    266
39    17
40    278
41    366
42    16
43    87
44    223
45    7
46    39
47    21
48    77
49    354
51    111
52    53
53    331
54    14
55    481
56    530
57    27
58    828
59    84
60    40
61    27
62    106
63    71
64    175
65    15
67    217
68    255
69    87
70    96
71    44
72    94
73    5
74    125
75    49
76    77
77    509
78    13
79    253
80    360
81    50
82    5
83    64
84    212
85    50
86    68
87    319
88    32
89    29
90    76
91    29
92    17
94    17
95    102
96    93
97    124
98    124
99    108
100   413
